 15 64 64 48  9 91 27 34 42  3 11 54 27 30  9 15 88 55 50 57
 28  4 43 93  1 81 77 69 52 28 28 77 42 53 46 49 15 43 65 41
 77 36 57 15 81 82 98 97 12 35 84 70 27 37 59 42 57 16 11 34
  1 59 95 49 90 78  3 69 99 41 73 28 99 13 59 47  8 92 87 62
 45 73 59 63 54 98 39 75 33  8 86 41 41 22 43 34 80 16 37 94